%chk=4planar.chk
%nproc = 8
%mem = 10000MB
# b3lyp/6-31g* SCF=YQC guess=check geom=check

Title

0 1

